benchmarks_CP/INST_64x64/40/inst64x64_40_86.dzn
S=8;
start=[|
45,	7,	11,	-1,	-1,	56,	-1,	-1,	-1,	-1,	-1,	3,	48,	-1,	-1,	10,	-1,	-1,	18,	19,	-1,	1,	-1,	-1,	-1,	-1,	34,	62,	5,	-1,	54,	38,	-1,	-1,	-1,	-1,	-1,	-1,	-1,	-1,	-1,	6,	-1,	33,	-1,	-1,	50,	13,	-1,	-1,	-1,	-1,	-1,	-1,	-1,	41,	-1,	-1,	8,	30,	-1,	-1,	-1,	23|
-1,	-1,	-1,	27,	21,	23,	-1,	33,	-1,	-1,	-1,	4,	29,	-1,	-1,	15,	-1,	-1,	8,	59,	-1,	-1,	-1,	35,	-1,	17,	-1,	-1,	-1,	47,	-1,	32,	39,	-1,	60,	-1,	-1,	16,	3,	-1,	56,	18,	-1,	44,	28,	-1,	-1,	-1,	25,	54,	31,	50,	-1,	26,	7,	-1,	-1,	-1,	64,	51,	41,	58,	52,	63|
57,	-1,	-1,	-1,	-1,	-1,	-1,	28,	-1,	-1,	-1,	42,	39,	35,	46,	-1,	-1,	-1,	-1,	-1,	-1,	6,	-1,	41,	60,	27,	-1,	9,	-1,	63,	3,	-1,	21,	44,	-1,	-1,	22,	14,	-1,	-1,	-1,	45,	20,	-1,	49,	8,	-1,	64,	-1,	-1,	-1,	-1,	55,	4,	13,	-1,	33,	-1,	29,	32,	-1,	38,	19,	-1|
46,	30,	50,	-1,	47,	37,	-1,	39,	-1,	-1,	40,	-1,	51,	-1,	-1,	22,	43,	-1,	57,	54,	63,	2,	21,	-1,	-1,	45,	56,	31,	-1,	-1,	-1,	-1,	-1,	28,	10,	-1,	-1,	62,	58,	32,	-1,	17,	-1,	14,	7,	-1,	-1,	42,	24,	-1,	-1,	-1,	-1,	-1,	59,	-1,	5,	11,	-1,	-1,	-1,	-1,	61,	-1|
40,	59,	-1,	53,	-1,	16,	29,	-1,	-1,	-1,	19,	27,	-1,	2,	-1,	8,	-1,	-1,	-1,	-1,	-1,	-1,	-1,	-1,	-1,	37,	61,	-1,	-1,	-1,	52,	-1,	24,	-1,	13,	36,	33,	-1,	11,	35,	-1,	-1,	-1,	-1,	-1,	-1,	48,	31,	32,	18,	-1,	-1,	56,	42,	-1,	-1,	-1,	43,	21,	-1,	47,	-1,	-1,	-1|
8,	-1,	-1,	64,	25,	60,	48,	54,	32,	61,	38,	-1,	13,	-1,	-1,	-1,	-1,	27,	17,	50,	23,	-1,	-1,	30,	-1,	33,	-1,	-1,	-1,	24,	-1,	-1,	-1,	-1,	18,	-1,	-1,	-1,	7,	1,	-1,	41,	-1,	58,	11,	-1,	5,	52,	-1,	-1,	-1,	57,	63,	-1,	2,	9,	-1,	46,	-1,	-1,	-1,	31,	-1,	-1|
32,	-1,	24,	-1,	-1,	-1,	4,	-1,	-1,	-1,	20,	-1,	-1,	21,	6,	-1,	-1,	-1,	-1,	-1,	-1,	-1,	42,	-1,	1,	-1,	-1,	-1,	2,	8,	12,	-1,	50,	-1,	-1,	-1,	-1,	-1,	15,	40,	57,	-1,	22,	62,	-1,	-1,	63,	-1,	-1,	-1,	44,	60,	19,	30,	45,	-1,	-1,	59,	-1,	9,	3,	-1,	-1,	25|
52,	-1,	-1,	-1,	-1,	-1,	63,	-1,	59,	37,	-1,	36,	-1,	-1,	31,	-1,	49,	-1,	-1,	-1,	-1,	32,	-1,	13,	18,	-1,	-1,	-1,	-1,	-1,	29,	-1,	-1,	-1,	53,	61,	-1,	-1,	-1,	-1,	-1,	-1,	-1,	-1,	-1,	-1,	-1,	-1,	-1,	6,	34,	46,	-1,	17,	40,	10,	1,	56,	-1,	42,	57,	27,	-1,	-1|
-1,	-1,	-1,	61,	-1,	-1,	-1,	-1,	36,	-1,	-1,	12,	-1,	-1,	-1,	23,	-1,	-1,	51,	-1,	-1,	62,	37,	42,	64,	-1,	-1,	-1,	-1,	-1,	49,	-1,	13,	-1,	-1,	19,	-1,	-1,	1,	-1,	-1,	-1,	-1,	55,	-1,	20,	-1,	28,	-1,	30,	-1,	26,	-1,	-1,	-1,	-1,	58,	-1,	38,	-1,	46,	-1,	-1,	-1|
-1,	-1,	-1,	-1,	-1,	-1,	-1,	-1,	62,	-1,	-1,	-1,	50,	39,	-1,	32,	6,	-1,	64,	3,	1,	-1,	34,	-1,	-1,	-1,	-1,	-1,	11,	-1,	-1,	58,	-1,	4,	36,	-1,	-1,	-1,	40,	-1,	-1,	-1,	-1,	31,	-1,	-1,	-1,	43,	-1,	-1,	38,	-1,	-1,	-1,	21,	-1,	-1,	-1,	20,	-1,	-1,	-1,	-1,	19|
-1,	-1,	3,	-1,	42,	-1,	8,	-1,	51,	-1,	54,	-1,	-1,	4,	22,	-1,	57,	2,	38,	-1,	-1,	-1,	-1,	-1,	-1,	-1,	60,	-1,	-1,	48,	-1,	-1,	28,	61,	31,	-1,	-1,	-1,	16,	25,	7,	-1,	-1,	-1,	50,	21,	-1,	40,	-1,	-1,	-1,	-1,	52,	-1,	6,	-1,	-1,	-1,	-1,	-1,	-1,	41,	5,	33|
31,	40,	10,	-1,	16,	-1,	-1,	-1,	20,	-1,	63,	15,	-1,	1,	-1,	-1,	30,	-1,	14,	-1,	-1,	-1,	-1,	-1,	47,	-1,	29,	-1,	61,	-1,	-1,	-1,	37,	32,	-1,	-1,	35,	-1,	-1,	38,	53,	-1,	19,	-1,	9,	-1,	-1,	-1,	-1,	-1,	46,	42,	17,	-1,	55,	57,	50,	-1,	60,	-1,	-1,	-1,	-1,	11|
-1,	-1,	59,	-1,	54,	-1,	-1,	-1,	-1,	-1,	-1,	-1,	-1,	-1,	-1,	-1,	19,	32,	53,	-1,	-1,	-1,	-1,	-1,	-1,	-1,	-1,	36,	-1,	-1,	-1,	-1,	23,	-1,	26,	-1,	-1,	-1,	30,	-1,	-1,	-1,	-1,	-1,	16,	15,	-1,	57,	-1,	11,	40,	-1,	-1,	-1,	-1,	-1,	-1,	-1,	-1,	6,	52,	-1,	-1,	-1|
36,	47,	-1,	-1,	-1,	-1,	34,	-1,	-1,	38,	-1,	5,	-1,	-1,	-1,	-1,	-1,	-1,	40,	-1,	-1,	13,	-1,	-1,	-1,	-1,	37,	15,	-1,	-1,	-1,	-1,	55,	-1,	62,	-1,	-1,	-1,	-1,	29,	-1,	-1,	-1,	-1,	-1,	-1,	24,	-1,	-1,	20,	3,	23,	41,	-1,	60,	-1,	44,	-1,	1,	-1,	-1,	35,	51,	-1|
58,	25,	-1,	-1,	18,	-1,	12,	-1,	-1,	-1,	-1,	-1,	-1,	-1,	-1,	33,	20,	-1,	44,	-1,	54,	35,	16,	-1,	-1,	-1,	-1,	-1,	62,	-1,	-1,	-1,	-1,	-1,	-1,	-1,	39,	-1,	-1,	22,	-1,	48,	8,	-1,	64,	52,	51,	-1,	-1,	1,	-1,	53,	-1,	63,	-1,	-1,	-1,	-1,	13,	4,	42,	-1,	3,	10|
-1,	14,	-1,	-1,	11,	-1,	-1,	53,	-1,	60,	49,	-1,	-1,	58,	-1,	-1,	-1,	10,	43,	48,	41,	29,	-1,	-1,	-1,	-1,	-1,	55,	-1,	-1,	25,	-1,	-1,	21,	-1,	-1,	-1,	6,	-1,	20,	-1,	-1,	-1,	61,	5,	-1,	-1,	1,	34,	-1,	32,	-1,	-1,	-1,	19,	39,	-1,	-1,	-1,	63,	36,	-1,	23,	-1|
41,	1,	63,	13,	-1,	-1,	62,	8,	50,	-1,	-1,	21,	-1,	16,	-1,	-1,	-1,	-1,	27,	57,	-1,	-1,	-1,	38,	61,	-1,	-1,	-1,	23,	17,	-1,	46,	-1,	56,	-1,	47,	-1,	-1,	-1,	-1,	-1,	31,	-1,	-1,	54,	-1,	-1,	11,	52,	3,	60,	-1,	-1,	-1,	30,	-1,	-1,	34,	-1,	14,	-1,	9,	-1,	-1|
-1,	18,	31,	57,	-1,	-1,	22,	32,	-1,	15,	-1,	13,	-1,	48,	-1,	-1,	-1,	-1,	-1,	-1,	-1,	-1,	-1,	53,	-1,	-1,	52,	-1,	34,	-1,	40,	-1,	25,	-1,	20,	8,	26,	45,	17,	-1,	-1,	55,	-1,	6,	38,	-1,	-1,	47,	-1,	44,	-1,	-1,	-1,	-1,	-1,	-1,	-1,	-1,	-1,	-1,	-1,	-1,	-1,	-1|
-1,	-1,	-1,	-1,	43,	-1,	-1,	-1,	-1,	32,	18,	23,	-1,	-1,	-1,	-1,	-1,	-1,	-1,	-1,	40,	22,	-1,	-1,	-1,	6,	5,	63,	-1,	55,	-1,	-1,	27,	-1,	-1,	-1,	-1,	28,	-1,	48,	-1,	1,	-1,	7,	62,	-1,	-1,	56,	37,	61,	45,	-1,	-1,	-1,	-1,	-1,	41,	-1,	-1,	31,	-1,	-1,	38,	-1|
-1,	-1,	-1,	56,	-1,	-1,	28,	7,	12,	31,	24,	-1,	49,	-1,	-1,	-1,	-1,	-1,	-1,	45,	-1,	-1,	48,	18,	-1,	-1,	-1,	-1,	41,	-1,	-1,	29,	-1,	-1,	46,	-1,	-1,	-1,	37,	-1,	-1,	52,	-1,	9,	63,	33,	-1,	-1,	39,	17,	-1,	-1,	-1,	43,	8,	-1,	54,	-1,	-1,	-1,	-1,	-1,	1,	-1|
14,	6,	60,	-1,	-1,	47,	-1,	-1,	-1,	-1,	51,	61,	-1,	8,	37,	-1,	9,	-1,	-1,	-1,	-1,	-1,	-1,	-1,	49,	-1,	-1,	59,	-1,	-1,	-1,	-1,	-1,	-1,	-1,	-1,	30,	-1,	-1,	63,	5,	-1,	-1,	34,	-1,	-1,	-1,	-1,	23,	-1,	28,	-1,	-1,	-1,	-1,	-1,	-1,	-1,	-1,	18,	56,	-1,	-1,	46|
24,	16,	53,	-1,	-1,	-1,	-1,	-1,	17,	4,	-1,	-1,	19,	-1,	-1,	-1,	13,	-1,	-1,	-1,	11,	56,	-1,	-1,	-1,	-1,	45,	-1,	31,	-1,	57,	-1,	61,	35,	-1,	-1,	-1,	-1,	5,	49,	25,	-1,	-1,	-1,	-1,	43,	46,	27,	-1,	50,	-1,	-1,	-1,	33,	-1,	-1,	-1,	-1,	55,	-1,	-1,	42,	47,	8|
20,	-1,	-1,	49,	-1,	-1,	-1,	25,	1,	43,	55,	-1,	36,	28,	7,	-1,	61,	34,	-1,	23,	50,	-1,	-1,	14,	-1,	12,	-1,	11,	-1,	-1,	-1,	-1,	32,	15,	-1,	-1,	-1,	-1,	-1,	-1,	-1,	58,	-1,	-1,	-1,	-1,	53,	16,	40,	47,	-1,	31,	27,	51,	42,	63,	-1,	60,	-1,	-1,	22,	10,	-1,	-1|
-1,	9,	19,	5,	38,	-1,	3,	-1,	-1,	-1,	56,	-1,	-1,	-1,	11,	-1,	36,	42,	1,	51,	-1,	12,	60,	43,	-1,	-1,	20,	-1,	-1,	-1,	-1,	48,	-1,	40,	7,	57,	-1,	-1,	-1,	-1,	-1,	-1,	15,	24,	13,	-1,	-1,	41,	-1,	-1,	55,	-1,	-1,	-1,	46,	-1,	-1,	-1,	33,	49,	-1,	-1,	-1,	-1|
-1,	62,	51,	-1,	-1,	-1,	-1,	-1,	21,	57,	-1,	-1,	27,	-1,	-1,	-1,	-1,	-1,	-1,	40,	-1,	-1,	-1,	60,	-1,	-1,	-1,	-1,	36,	42,	-1,	-1,	-1,	38,	35,	55,	-1,	-1,	22,	61,	-1,	-1,	-1,	-1,	-1,	53,	-1,	19,	6,	-1,	-1,	-1,	-1,	-1,	-1,	-1,	-1,	-1,	-1,	-1,	-1,	-1,	-1,	-1|
-1,	-1,	41,	-1,	-1,	-1,	-1,	5,	-1,	-1,	13,	-1,	-1,	-1,	34,	55,	-1,	-1,	-1,	-1,	12,	28,	-1,	36,	46,	-1,	-1,	-1,	51,	-1,	61,	-1,	-1,	-1,	-1,	-1,	-1,	-1,	-1,	-1,	27,	-1,	-1,	-1,	44,	-1,	8,	63,	-1,	45,	7,	-1,	-1,	-1,	3,	-1,	22,	-1,	10,	-1,	-1,	2,	15,	-1|
-1,	20,	-1,	-1,	-1,	-1,	15,	38,	23,	-1,	-1,	-1,	-1,	-1,	45,	-1,	-1,	-1,	29,	5,	-1,	-1,	-1,	-1,	-1,	63,	-1,	25,	-1,	54,	-1,	-1,	6,	-1,	-1,	-1,	-1,	-1,	-1,	-1,	-1,	-1,	43,	57,	-1,	-1,	-1,	-1,	-1,	31,	-1,	-1,	-1,	39,	-1,	-1,	32,	-1,	7,	-1,	-1,	14,	33,	18|
-1,	10,	32,	6,	56,	-1,	-1,	11,	-1,	-1,	-1,	-1,	-1,	-1,	5,	-1,	-1,	-1,	-1,	18,	58,	42,	14,	64,	-1,	-1,	-1,	-1,	-1,	-1,	19,	-1,	15,	50,	-1,	-1,	-1,	-1,	25,	57,	-1,	40,	36,	-1,	12,	41,	-1,	20,	43,	-1,	47,	-1,	61,	-1,	-1,	27,	45,	-1,	-1,	-1,	-1,	-1,	21,	62|
-1,	-1,	-1,	21,	-1,	-1,	-1,	-1,	-1,	36,	14,	-1,	-1,	-1,	17,	40,	38,	-1,	31,	41,	-1,	-1,	32,	46,	28,	-1,	-1,	-1,	-1,	29,	-1,	11,	-1,	-1,	-1,	-1,	-1,	-1,	-1,	-1,	-1,	-1,	-1,	-1,	2,	-1,	30,	-1,	55,	49,	20,	-1,	42,	-1,	-1,	34,	-1,	12,	57,	-1,	-1,	-1,	64,	27|
-1,	57,	-1,	37,	-1,	-1,	-1,	-1,	3,	-1,	-1,	22,	9,	32,	-1,	56,	-1,	-1,	-1,	-1,	34,	-1,	-1,	50,	-1,	-1,	-1,	20,	21,	-1,	-1,	16,	-1,	14,	64,	28,	-1,	-1,	10,	23,	15,	-1,	-1,	-1,	33,	-1,	7,	-1,	-1,	-1,	-1,	25,	-1,	38,	18,	13,	-1,	-1,	31,	-1,	-1,	-1,	-1,	42|
-1,	-1,	-1,	-1,	-1,	44,	23,	-1,	16,	-1,	-1,	-1,	31,	-1,	51,	38,	-1,	45,	37,	-1,	-1,	7,	-1,	-1,	-1,	15,	3,	5,	-1,	-1,	-1,	-1,	-1,	-1,	-1,	-1,	-1,	30,	33,	41,	-1,	46,	-1,	-1,	42,	39,	-1,	60,	-1,	-1,	4,	-1,	-1,	-1,	-1,	11,	-1,	-1,	61,	-1,	-1,	-1,	34,	-1|
-1,	63,	-1,	18,	-1,	45,	25,	-1,	-1,	-1,	48,	-1,	12,	20,	-1,	58,	56,	-1,	10,	-1,	-1,	-1,	-1,	-1,	-1,	-1,	-1,	-1,	43,	-1,	-1,	-1,	54,	5,	-1,	17,	4,	-1,	-1,	62,	-1,	61,	-1,	35,	21,	-1,	-1,	49,	-1,	28,	-1,	-1,	57,	-1,	-1,	-1,	23,	53,	46,	-1,	-1,	-1,	-1,	36|
-1,	4,	-1,	63,	-1,	-1,	-1,	42,	2,	-1,	25,	-1,	32,	-1,	58,	36,	-1,	-1,	41,	-1,	-1,	37,	11,	-1,	-1,	-1,	33,	23,	3,	-1,	55,	-1,	40,	-1,	61,	-1,	-1,	-1,	-1,	30,	9,	53,	-1,	-1,	-1,	-1,	-1,	-1,	-1,	48,	-1,	-1,	-1,	62,	-1,	18,	-1,	10,	-1,	39,	8,	-1,	-1,	43|
-1,	-1,	-1,	62,	-1,	21,	33,	-1,	-1,	27,	-1,	18,	-1,	-1,	14,	-1,	-1,	-1,	-1,	-1,	47,	9,	-1,	-1,	-1,	-1,	63,	-1,	-1,	-1,	-1,	-1,	3,	-1,	25,	-1,	-1,	7,	-1,	-1,	-1,	-1,	28,	2,	43,	46,	29,	15,	51,	-1,	23,	4,	-1,	36,	26,	55,	-1,	-1,	30,	-1,	50,	-1,	-1,	41|
-1,	-1,	-1,	3,	23,	-1,	-1,	-1,	-1,	-1,	-1,	-1,	55,	6,	-1,	11,	24,	-1,	-1,	-1,	53,	-1,	27,	-1,	-1,	46,	-1,	-1,	-1,	-1,	-1,	12,	-1,	-1,	-1,	-1,	-1,	-1,	64,	-1,	-1,	54,	-1,	-1,	-1,	-1,	-1,	8,	-1,	-1,	-1,	44,	37,	-1,	41,	-1,	-1,	-1,	-1,	-1,	-1,	59,	-1,	-1|
-1,	17,	-1,	8,	31,	-1,	-1,	-1,	48,	33,	43,	-1,	56,	-1,	-1,	-1,	-1,	-1,	23,	14,	55,	-1,	-1,	-1,	-1,	-1,	-1,	-1,	-1,	-1,	41,	47,	-1,	-1,	-1,	-1,	-1,	-1,	21,	-1,	44,	35,	-1,	18,	61,	-1,	-1,	7,	-1,	-1,	-1,	-1,	-1,	-1,	-1,	-1,	46,	-1,	5,	-1,	-1,	32,	-1,	-1|
-1,	60,	-1,	-1,	5,	-1,	-1,	-1,	-1,	-1,	39,	45,	41,	15,	-1,	-1,	-1,	-1,	-1,	-1,	7,	-1,	-1,	-1,	-1,	48,	-1,	-1,	-1,	9,	-1,	-1,	1,	-1,	32,	-1,	10,	-1,	-1,	19,	17,	-1,	-1,	-1,	25,	-1,	-1,	24,	33,	34,	-1,	-1,	-1,	16,	-1,	-1,	-1,	-1,	40,	-1,	-1,	-1,	-1,	-1|
-1,	15,	47,	16,	-1,	-1,	-1,	-1,	22,	-1,	23,	46,	59,	-1,	-1,	-1,	-1,	56,	60,	-1,	43,	-1,	-1,	-1,	-1,	18,	28,	-1,	53,	-1,	51,	-1,	9,	2,	63,	-1,	-1,	57,	-1,	34,	41,	37,	-1,	-1,	-1,	-1,	-1,	-1,	-1,	10,	-1,	58,	-1,	-1,	-1,	25,	20,	-1,	12,	-1,	-1,	-1,	54,	-1|
-1,	-1,	64,	-1,	-1,	-1,	-1,	-1,	28,	-1,	-1,	7,	-1,	63,	-1,	12,	-1,	-1,	-1,	32,	4,	-1,	49,	-1,	-1,	-1,	31,	34,	39,	-1,	14,	25,	-1,	-1,	58,	-1,	6,	-1,	-1,	-1,	11,	57,	47,	-1,	-1,	-1,	59,	-1,	-1,	-1,	42,	43,	-1,	45,	-1,	-1,	-1,	3,	-1,	-1,	-1,	-1,	-1,	-1|
25,	-1,	-1,	-1,	-1,	-1,	-1,	1,	-1,	9,	64,	17,	54,	-1,	60,	-1,	59,	-1,	63,	-1,	13,	51,	-1,	-1,	-1,	26,	7,	-1,	-1,	56,	-1,	4,	48,	-1,	44,	41,	62,	11,	-1,	-1,	-1,	-1,	39,	-1,	3,	32,	16,	-1,	-1,	-1,	50,	8,	-1,	-1,	35,	-1,	-1,	15,	-1,	34,	-1,	-1,	27,	22|
-1,	-1,	33,	-1,	-1,	-1,	-1,	-1,	-1,	-1,	-1,	-1,	-1,	-1,	-1,	-1,	16,	-1,	-1,	-1,	29,	-1,	-1,	-1,	-1,	57,	-1,	26,	37,	13,	-1,	3,	-1,	49,	45,	-1,	63,	-1,	48,	55,	54,	42,	1,	-1,	51,	-1,	34,	-1,	-1,	-1,	-1,	-1,	31,	15,	-1,	-1,	-1,	8,	-1,	10,	7,	5,	-1,	-1|
26,	51,	44,	-1,	-1,	14,	16,	64,	-1,	-1,	-1,	10,	1,	57,	50,	18,	28,	-1,	-1,	9,	-1,	-1,	58,	39,	30,	56,	-1,	-1,	-1,	45,	59,	-1,	52,	-1,	24,	35,	-1,	-1,	-1,	-1,	-1,	-1,	53,	-1,	-1,	-1,	-1,	-1,	-1,	43,	-1,	34,	20,	-1,	22,	33,	60,	-1,	-1,	-1,	-1,	23,	-1,	-1|
-1,	12,	21,	-1,	-1,	-1,	-1,	48,	7,	11,	27,	-1,	8,	45,	-1,	14,	53,	60,	-1,	22,	-1,	-1,	-1,	-1,	-1,	28,	-1,	6,	29,	-1,	24,	31,	-1,	3,	16,	18,	2,	54,	-1,	-1,	61,	33,	-1,	63,	-1,	-1,	-1,	-1,	-1,	40,	-1,	36,	62,	55,	49,	-1,	13,	-1,	-1,	43,	-1,	19,	30,	-1|
-1,	23,	34,	-1,	10,	-1,	59,	-1,	-1,	-1,	36,	-1,	17,	29,	-1,	-1,	-1,	-1,	20,	-1,	-1,	47,	-1,	-1,	-1,	1,	-1,	-1,	46,	12,	27,	-1,	-1,	31,	-1,	-1,	-1,	43,	53,	-1,	38,	-1,	-1,	-1,	-1,	3,	-1,	-1,	-1,	25,	51,	-1,	26,	2,	-1,	19,	-1,	58,	-1,	-1,	-1,	-1,	-1,	56|
15,	-1,	-1,	-1,	-1,	-1,	-1,	60,	42,	-1,	-1,	56,	34,	54,	-1,	-1,	17,	-1,	59,	31,	30,	-1,	-1,	-1,	63,	-1,	47,	-1,	-1,	61,	-1,	-1,	-1,	20,	-1,	40,	57,	-1,	-1,	-1,	-1,	-1,	-1,	-1,	-1,	-1,	-1,	21,	46,	-1,	-1,	45,	38,	-1,	50,	-1,	-1,	51,	27,	1,	-1,	-1,	2,	44|
-1,	-1,	17,	-1,	-1,	55,	-1,	-1,	-1,	-1,	53,	48,	-1,	47,	-1,	-1,	-1,	-1,	61,	-1,	-1,	10,	-1,	23,	-1,	51,	25,	-1,	9,	11,	15,	2,	44,	1,	-1,	-1,	60,	-1,	19,	-1,	-1,	-1,	5,	-1,	20,	36,	-1,	-1,	-1,	8,	64,	-1,	6,	24,	28,	54,	-1,	14,	-1,	33,	-1,	-1,	-1,	-1|
-1,	-1,	-1,	41,	-1,	62,	46,	-1,	-1,	-1,	-1,	-1,	6,	-1,	-1,	-1,	-1,	4,	-1,	11,	-1,	-1,	3,	51,	55,	-1,	58,	52,	18,	-1,	-1,	-1,	34,	59,	-1,	-1,	-1,	9,	61,	-1,	-1,	-1,	49,	-1,	-1,	12,	27,	-1,	-1,	-1,	29,	17,	-1,	-1,	32,	-1,	-1,	54,	-1,	-1,	35,	-1,	-1,	-1|
5,	11,	-1,	38,	-1,	36,	20,	-1,	33,	22,	-1,	-1,	40,	-1,	25,	-1,	34,	-1,	-1,	-1,	18,	-1,	-1,	-1,	-1,	-1,	-1,	-1,	-1,	21,	39,	-1,	51,	-1,	27,	56,	41,	-1,	-1,	-1,	55,	28,	29,	16,	-1,	60,	45,	-1,	-1,	-1,	14,	-1,	-1,	-1,	-1,	-1,	52,	-1,	-1,	-1,	-1,	-1,	37,	24|
-1,	27,	-1,	-1,	-1,	12,	1,	-1,	40,	51,	-1,	-1,	-1,	38,	21,	-1,	-1,	-1,	-1,	-1,	-1,	-1,	-1,	-1,	2,	7,	-1,	28,	-1,	-1,	-1,	-1,	47,	-1,	-1,	-1,	-1,	32,	-1,	31,	-1,	-1,	-1,	15,	55,	-1,	-1,	53,	59,	5,	58,	64,	49,	44,	-1,	26,	9,	23,	39,	-1,	-1,	25,	42,	-1|
39,	64,	36,	-1,	62,	20,	58,	-1,	-1,	-1,	22,	50,	-1,	-1,	-1,	31,	25,	29,	-1,	53,	-1,	-1,	-1,	-1,	12,	11,	-1,	47,	48,	59,	-1,	-1,	-1,	60,	52,	1,	44,	13,	-1,	-1,	-1,	-1,	2,	-1,	46,	-1,	37,	14,	42,	4,	-1,	-1,	-1,	-1,	-1,	6,	-1,	38,	43,	-1,	-1,	-1,	-1,	-1|
-1,	56,	-1,	32,	-1,	-1,	-1,	14,	-1,	49,	-1,	-1,	16,	-1,	12,	-1,	5,	-1,	2,	-1,	39,	-1,	-1,	8,	3,	-1,	-1,	-1,	-1,	-1,	-1,	-1,	-1,	-1,	-1,	42,	-1,	-1,	-1,	-1,	-1,	-1,	-1,	-1,	-1,	47,	20,	61,	-1,	-1,	-1,	-1,	-1,	-1,	25,	-1,	-1,	-1,	-1,	-1,	37,	57,	-1,	29|
-1,	-1,	8,	22,	-1,	2,	-1,	-1,	-1,	-1,	58,	59,	-1,	56,	44,	7,	51,	15,	35,	-1,	-1,	48,	40,	-1,	-1,	-1,	-1,	61,	49,	26,	-1,	-1,	18,	30,	-1,	11,	-1,	10,	-1,	16,	-1,	25,	45,	-1,	60,	-1,	38,	62,	-1,	37,	-1,	-1,	32,	-1,	-1,	-1,	12,	-1,	63,	27,	5,	46,	-1,	50|
37,	19,	-1,	60,	-1,	10,	-1,	29,	15,	3,	-1,	-1,	25,	33,	-1,	47,	-1,	61,	-1,	-1,	-1,	-1,	-1,	59,	-1,	-1,	8,	-1,	-1,	30,	-1,	34,	-1,	-1,	-1,	51,	7,	-1,	62,	24,	-1,	-1,	4,	-1,	58,	35,	-1,	9,	-1,	12,	-1,	-1,	-1,	23,	1,	43,	-1,	36,	44,	2,	18,	13,	-1,	-1|
50,	33,	-1,	30,	-1,	11,	42,	-1,	-1,	8,	35,	34,	-1,	-1,	-1,	-1,	23,	14,	-1,	-1,	-1,	55,	52,	26,	-1,	-1,	32,	-1,	-1,	31,	-1,	27,	38,	58,	-1,	63,	-1,	-1,	43,	-1,	-1,	64,	41,	22,	-1,	51,	-1,	-1,	-1,	56,	-1,	28,	9,	46,	-1,	-1,	19,	-1,	-1,	59,	-1,	61,	-1,	-1|
-1,	-1,	25,	-1,	-1,	57,	5,	63,	10,	-1,	2,	-1,	-1,	26,	-1,	-1,	-1,	-1,	4,	-1,	-1,	-1,	-1,	-1,	22,	39,	-1,	-1,	44,	38,	-1,	-1,	-1,	37,	-1,	-1,	-1,	-1,	12,	15,	50,	-1,	7,	42,	23,	-1,	-1,	-1,	21,	55,	-1,	-1,	-1,	34,	-1,	45,	64,	6,	-1,	-1,	31,	-1,	-1,	35|
-1,	-1,	55,	-1,	-1,	28,	-1,	51,	-1,	-1,	-1,	9,	20,	-1,	-1,	-1,	-1,	-1,	-1,	-1,	-1,	-1,	-1,	-1,	-1,	25,	16,	58,	-1,	-1,	-1,	62,	29,	34,	-1,	23,	21,	-1,	-1,	2,	18,	27,	17,	-1,	-1,	-1,	32,	39,	31,	36,	-1,	-1,	-1,	-1,	10,	-1,	11,	-1,	47,	-1,	-1,	-1,	-1,	15|
-1,	26,	42,	-1,	-1,	-1,	-1,	16,	56,	58,	-1,	-1,	33,	60,	-1,	-1,	-1,	50,	-1,	-1,	-1,	-1,	4,	37,	29,	54,	9,	10,	-1,	-1,	-1,	-1,	-1,	24,	-1,	64,	32,	-1,	-1,	-1,	-1,	-1,	-1,	-1,	-1,	14,	-1,	-1,	30,	-1,	15,	61,	-1,	-1,	34,	-1,	-1,	19,	-1,	-1,	45,	-1,	13,	-1|
19,	-1,	56,	-1,	33,	-1,	-1,	-1,	-1,	-1,	-1,	-1,	-1,	22,	63,	54,	7,	-1,	13,	61,	-1,	-1,	-1,	-1,	32,	-1,	-1,	45,	16,	57,	62,	-1,	-1,	-1,	4,	-1,	18,	40,	-1,	-1,	-1,	-1,	-1,	-1,	6,	-1,	28,	-1,	14,	26,	-1,	3,	-1,	-1,	-1,	48,	37,	9,	-1,	-1,	-1,	47,	-1,	-1|
12,	41,	-1,	-1,	-1,	-1,	-1,	45,	-1,	20,	-1,	-1,	23,	-1,	-1,	-1,	-1,	-1,	-1,	-1,	-1,	38,	-1,	-1,	-1,	61,	-1,	-1,	50,	-1,	31,	-1,	-1,	42,	57,	-1,	-1,	-1,	51,	-1,	26,	-1,	9,	-1,	-1,	29,	35,	59,	-1,	-1,	-1,	-1,	10,	52,	-1,	-1,	-1,	4,	-1,	-1,	-1,	15,	6,	-1|
64,	-1,	38,	58,	-1,	-1,	47,	-1,	45,	24,	29,	-1,	-1,	-1,	-1,	48,	-1,	55,	-1,	60,	-1,	-1,	10,	5,	-1,	34,	-1,	-1,	-1,	-1,	56,	-1,	62,	-1,	-1,	21,	61,	-1,	-1,	6,	51,	-1,	33,	-1,	-1,	40,	-1,	18,	9,	-1,	-1,	49,	1,	11,	53,	-1,	-1,	35,	-1,	-1,	59,	12,	8,	-1|
60,	-1,	57,	-1,	-1,	-1,	30,	-1,	-1,	-1,	-1,	11,	-1,	-1,	-1,	25,	-1,	-1,	-1,	-1,	32,	-1,	51,	-1,	41,	-1,	-1,	44,	15,	-1,	-1,	-1,	-1,	63,	33,	-1,	19,	-1,	-1,	46,	13,	-1,	-1,	-1,	-1,	-1,	2,	54,	-1,	-1,	-1,	-1,	-1,	-1,	-1,	-1,	38,	-1,	17,	61,	-1,	16,	24,	31|
-1,	-1,	1,	-1,	-1,	31,	-1,	17,	-1,	-1,	57,	26,	-1,	-1,	39,	-1,	-1,	-1,	9,	-1,	48,	-1,	-1,	6,	-1,	-1,	35,	-1,	-1,	-1,	-1,	-1,	-1,	-1,	-1,	3,	29,	-1,	8,	44,	19,	32,	63,	-1,	30,	-1,	-1,	-1,	20,	-1,	-1,	54,	-1,	12,	-1,	-1,	2,	33,	50,	-1,	60,	36,	10,	-1|
62,	-1,	-1,	20,	-1,	-1,	-1,	-1,	61,	46,	7,	-1,	-1,	51,	-1,	-1,	26,	-1,	-1,	-1,	16,	-1,	-1,	-1,	-1,	19,	-1,	-1,	60,	-1,	18,	-1,	31,	-1,	-1,	-1,	27,	15,	-1,	-1,	58,	-1,	50,	-1,	36,	-1,	-1,	-1,	28,	-1,	43,	24,	2,	-1,	-1,	-1,	-1,	44,	-1,	-1,	-1,	11,	-1,	14|
51,	29,	-1,	10,	4,	-1,	-1,	-1,	31,	-1,	-1,	-1,	-1,	-1,	36,	-1,	-1,	-1,	-1,	-1,	20,	-1,	54,	-1,	33,	59,	27,	-1,	-1,	-1,	-1,	-1,	45,	-1,	39,	25,	-1,	-1,	-1,	12,	24,	49,	-1,	-1,	-1,	-1,	-1,	-1,	-1,	-1,	5,	-1,	-1,	-1,	63,	42,	-1,	-1,	-1,	-1,	-1,	-1,	57,	-1|];
