sudoku-ls/benchmarks_LEQ/INST_64x64/40/inst64x64_40_86.txt
8
1
-1	-1	-1	-1	51	56	-1	-1	-1	-1	52	-1	48	-1	-1	-1	-1	-1	18	-1	-1	1	55	29	-1	53	-1	-1	5	14	54	-1	46	-1	2	-1	-1	63	-1	-1	37	-1	59	33	32	-1	-1	-1	49	-1	61	20	21	-1	-1	41	28	-1	-1	-1	-1	24	17	23
-1	42	-1	-1	-1	-1	-1	-1	9	1	12	-1	-1	-1	-1	15	-1	11	-1	-1	-1	-1	-1	-1	48	17	36	40	-1	-1	-1	-1	39	57	60	-1	-1	-1	3	37	-1	18	-1	-1	-1	-1	55	-1	-1	54	-1	50	-1	-1	7	-1	-1	2	-1	51	-1	-1	-1	63
-1	58	-1	-1	-1	1	-1	28	-1	50	-1	-1	-1	35	-1	53	-1	-1	-1	-1	-1	6	26	41	60	-1	-1	9	59	63	3	-1	21	-1	30	-1	-1	-1	34	-1	40	45	-1	-1	-1	-1	-1	-1	-1	23	-1	52	-1	-1	13	51	-1	16	-1	-1	-1	38	-1	-1
46	-1	-1	9	-1	-1	-1	39	-1	-1	-1	-1	51	-1	-1	-1	43	-1	-1	-1	-1	2	21	44	-1	-1	56	31	26	41	-1	-1	-1	-1	10	52	-1	62	58	-1	35	-1	27	-1	7	-1	1	42	24	64	-1	-1	-1	-1	59	-1	-1	11	-1	13	-1	34	-1	-1
-1	59	62	53	-1	16	29	-1	-1	34	-1	-1	-1	2	-1	-1	-1	-1	-1	58	-1	-1	-1	7	57	-1	-1	51	-1	-1	-1	-1	24	17	-1	-1	33	-1	11	-1	46	-1	54	60	-1	-1	-1	31	-1	18	1	-1	-1	42	14	-1	-1	43	-1	-1	-1	55	20	45
-1	-1	-1	64	-1	60	-1	-1	32	-1	38	-1	-1	14	56	-1	-1	27	-1	50	-1	-1	-1	-1	10	-1	-1	21	28	24	-1	-1	-1	-1	18	-1	-1	19	-1	-1	-1	-1	-1	58	-1	-1	-1	-1	-1	-1	22	-1	63	-1	-1	9	39	46	26	-1	-1	-1	4	37
32	49	24	17	-1	-1	-1	-1	-1	7	-1	-1	-1	-1	-1	-1	-1	51	-1	-1	-1	-1	42	-1	-1	13	23	-1	-1	-1	12	-1	50	27	-1	-1	31	-1	-1	40	-1	-1	-1	-1	-1	-1	63	-1	-1	-1	-1	-1	19	-1	-1	-1	10	-1	-1	-1	3	-1	-1	-1
-1	22	5	-1	44	-1	-1	-1	59	37	-1	-1	-1	11	-1	-1	-1	-1	-1	16	33	-1	-1	-1	18	-1	55	-1	-1	50	-1	7	-1	-1	53	61	54	51	-1	-1	-1	-1	30	21	26	-1	-1	23	-1	-1	34	46	-1	17	-1	-1	-1	-1	35	-1	-1	-1	-1	60
-1	-1	-1	-1	-1	-1	-1	6	36	-1	-1	-1	7	40	52	-1	-1	59	51	25	-1	62	-1	-1	64	35	-1	14	-1	-1	-1	-1	-1	18	-1	19	47	-1	-1	3	-1	63	32	55	-1	20	11	-1	10	30	-1	-1	33	29	-1	-1	-1	-1	-1	-1	-1	54	-1	34
-1	-1	-1	-1	-1	52	51	57	-1	-1	-1	-1	50	-1	24	-1	-1	-1	64	-1	-1	-1	-1	-1	-1	-1	-1	12	-1	-1	23	-1	-1	-1	-1	-1	-1	27	-1	33	-1	-1	-1	31	-1	37	56	-1	-1	-1	-1	-1	-1	25	21	14	55	-1	-1	47	30	-1	-1	19
-1	-1	-1	-1	42	13	-1	-1	51	-1	-1	29	-1	-1	-1	-1	-1	-1	38	-1	-1	23	63	11	-1	10	60	-1	-1	48	-1	-1	28	-1	-1	-1	-1	-1	16	-1	7	-1	-1	-1	-1	21	-1	40	-1	-1	-1	-1	-1	35	-1	-1	-1	-1	-1	-1	39	-1	-1	-1
-1	-1	-1	39	16	-1	-1	-1	20	13	-1	15	-1	-1	-1	21	30	-1	-1	-1	22	5	-1	-1	-1	3	-1	-1	-1	-1	43	6	37	32	-1	-1	-1	-1	-1	-1	53	-1	-1	-1	9	-1	23	2	-1	-1	-1	-1	-1	18	-1	57	-1	28	60	-1	-1	-1	25	-1
38	50	59	4	-1	-1	56	-1	34	35	-1	-1	-1	-1	27	2	-1	-1	-1	55	-1	-1	-1	24	7	-1	1	36	-1	-1	-1	-1	-1	10	-1	-1	17	-1	30	-1	47	-1	-1	13	-1	-1	33	-1	-1	11	-1	5	-1	58	43	49	-1	-1	-1	6	-1	22	-1	-1
36	-1	30	-1	-1	49	-1	21	-1	-1	61	-1	57	53	9	17	-1	-1	-1	-1	52	13	18	12	-1	31	37	-1	63	46	28	33	-1	48	-1	43	11	-1	-1	-1	-1	14	10	54	45	27	24	-1	50	-1	-1	-1	41	-1	60	56	-1	-1	1	7	16	35	51	2
-1	-1	-1	23	18	-1	-1	-1	-1	30	31	6	-1	-1	43	-1	-1	-1	-1	-1	-1	35	-1	21	5	2	-1	-1	-1	-1	38	56	-1	-1	-1	-1	39	-1	14	-1	-1	48	-1	46	64	52	-1	-1	61	1	-1	-1	-1	-1	-1	36	-1	27	13	4	-1	-1	-1	-1
-1	14	-1	24	11	-1	-1	-1	44	-1	-1	-1	-1	-1	-1	42	33	10	-1	-1	-1	29	28	-1	-1	-1	-1	55	-1	-1	-1	-1	-1	-1	-1	54	-1	6	-1	20	30	3	-1	61	-1	-1	62	-1	34	-1	32	2	4	-1	-1	-1	-1	-1	-1	63	-1	-1	-1	-1
-1	1	-1	-1	-1	64	-1	-1	-1	-1	-1	21	58	-1	-1	44	-1	-1	-1	-1	-1	-1	25	38	61	-1	-1	18	23	17	7	-1	10	-1	-1	-1	-1	-1	-1	-1	-1	-1	48	37	54	-1	-1	-1	-1	-1	-1	22	-1	5	-1	32	-1	34	59	-1	-1	9	-1	4
11	-1	31	-1	58	42	-1	-1	46	15	10	-1	-1	48	33	5	41	3	49	-1	19	24	-1	53	-1	-1	-1	-1	34	-1	40	-1	-1	-1	-1	-1	26	45	17	-1	59	-1	-1	6	-1	50	61	-1	36	44	54	-1	35	-1	9	21	-1	-1	28	62	-1	30	-1	12
-1	-1	-1	33	-1	59	17	-1	-1	32	-1	23	60	-1	-1	39	10	-1	54	15	-1	22	-1	-1	-1	6	-1	63	-1	-1	-1	53	-1	-1	34	16	9	-1	-1	-1	64	-1	3	7	-1	-1	-1	-1	37	-1	-1	-1	12	-1	-1	-1	-1	-1	-1	31	25	-1	-1	-1
27	-1	-1	-1	-1	-1	28	-1	12	31	-1	25	-1	-1	47	-1	-1	-1	-1	-1	-1	-1	48	18	-1	-1	-1	-1	41	36	-1	-1	-1	-1	46	-1	-1	58	37	11	20	-1	-1	9	-1	33	10	-1	-1	-1	62	13	14	-1	-1	-1	-1	50	-1	-1	-1	-1	-1	16
14	-1	-1	55	-1	47	-1	-1	-1	-1	-1	61	22	-1	-1	-1	-1	-1	16	-1	-1	-1	7	58	-1	44	-1	59	13	43	-1	-1	42	53	-1	-1	30	52	-1	-1	5	2	-1	34	-1	-1	-1	-1	23	-1	-1	-1	-1	-1	-1	-1	24	-1	-1	-1	-1	-1	-1	-1
-1	16	-1	26	-1	-1	-1	-1	-1	-1	-1	-1	19	-1	38	-1	-1	-1	6	-1	11	-1	59	-1	-1	-1	-1	1	31	28	-1	54	61	-1	22	-1	-1	-1	-1	49	25	36	60	-1	-1	-1	-1	-1	-1	-1	-1	-1	-1	-1	-1	7	-1	-1	55	-1	23	42	47	-1
-1	54	29	-1	-1	30	37	25	1	43	-1	-1	-1	-1	-1	-1	61	34	-1	-1	50	-1	-1	-1	-1	12	39	-1	4	3	35	9	-1	-1	-1	13	-1	-1	-1	-1	21	58	-1	17	-1	44	-1	-1	-1	-1	-1	31	27	-1	42	63	-1	-1	-1	-1	-1	10	45	64
44	-1	19	-1	-1	-1	-1	10	-1	-1	-1	54	-1	-1	11	-1	36	42	1	51	-1	12	-1	-1	-1	-1	20	-1	-1	-1	-1	-1	64	-1	-1	-1	-1	-1	18	-1	28	-1	15	-1	-1	-1	-1	41	26	16	-1	6	34	-1	-1	-1	27	-1	-1	49	61	-1	-1	21
33	-1	51	50	28	-1	64	-1	21	-1	-1	-1	27	-1	-1	-1	1	-1	-1	-1	-1	-1	23	-1	-1	32	-1	-1	-1	42	-1	14	26	-1	35	-1	-1	-1	-1	-1	48	-1	-1	52	-1	-1	-1	-1	-1	-1	-1	-1	29	9	56	12	-1	47	3	25	63	20	11	-1
43	31	41	59	-1	-1	-1	-1	35	-1	-1	-1	-1	42	34	55	4	-1	-1	20	12	28	-1	-1	46	-1	57	33	-1	37	61	-1	58	11	-1	-1	-1	39	-1	21	-1	-1	-1	38	44	-1	-1	63	17	45	7	30	23	-1	3	-1	-1	-1	-1	56	-1	-1	-1	-1
-1	20	16	42	-1	-1	15	-1	-1	19	46	64	-1	49	-1	-1	-1	13	29	-1	44	61	62	48	-1	-1	41	25	-1	-1	34	-1	-1	-1	12	37	-1	-1	60	27	4	-1	-1	-1	22	56	-1	-1	35	31	10	-1	58	39	-1	-1	-1	26	-1	55	-1	-1	-1	18
-1	10	32	6	-1	-1	60	-1	-1	63	33	-1	-1	7	-1	29	35	-1	-1	18	58	42	-1	64	-1	-1	-1	-1	-1	44	19	22	-1	50	59	46	34	-1	-1	57	31	-1	36	28	-1	41	54	-1	-1	-1	-1	-1	-1	1	-1	-1	-1	49	16	-1	-1	-1	21	-1
-1	-1	-1	-1	52	-1	-1	3	-1	36	-1	-1	-1	59	17	-1	-1	-1	31	-1	25	15	32	-1	-1	-1	48	-1	-1	-1	58	-1	16	-1	-1	-1	51	-1	-1	-1	23	-1	6	5	-1	18	-1	-1	55	-1	-1	33	42	-1	-1	-1	-1	12	-1	-1	-1	-1	-1	27
49	-1	46	-1	-1	-1	55	12	-1	-1	30	22	-1	32	61	-1	-1	-1	-1	43	-1	-1	-1	-1	-1	-1	62	-1	-1	-1	8	-1	-1	-1	-1	-1	-1	-1	-1	23	-1	-1	11	-1	-1	45	7	-1	44	63	-1	-1	5	-1	18	13	-1	-1	-1	-1	-1	60	-1	42
-1	2	-1	29	24	44	23	-1	-1	-1	-1	-1	-1	50	-1	-1	-1	45	37	21	-1	7	-1	-1	-1	-1	3	5	12	-1	-1	-1	56	8	-1	-1	-1	-1	-1	41	-1	-1	-1	-1	-1	-1	-1	60	-1	-1	-1	-1	-1	-1	48	-1	59	52	-1	-1	28	40	34	-1
-1	-1	-1	18	-1	-1	25	-1	-1	-1	48	37	-1	-1	-1	-1	-1	-1	-1	33	-1	3	30	16	-1	-1	24	-1	-1	-1	47	26	-1	-1	42	-1	4	-1	-1	-1	-1	61	-1	35	-1	9	64	-1	-1	-1	-1	-1	57	-1	-1	59	23	-1	46	19	-1	-1	-1	36
-1	-1	49	63	20	26	19	42	2	-1	-1	-1	-1	-1	-1	36	-1	6	-1	-1	-1	-1	-1	-1	-1	29	-1	-1	3	15	-1	-1	40	47	61	59	-1	-1	35	-1	-1	53	-1	27	14	5	60	-1	-1	48	-1	-1	-1	-1	-1	18	-1	-1	51	-1	8	45	44	-1
-1	48	-1	62	-1	-1	33	52	-1	-1	42	-1	-1	-1	14	34	-1	-1	58	-1	47	9	17	19	38	8	-1	57	-1	60	-1	-1	3	22	-1	-1	56	7	39	-1	12	20	28	-1	43	-1	29	-1	-1	32	-1	-1	-1	36	26	55	-1	-1	-1	-1	-1	64	-1	-1
2	-1	9	-1	23	-1	-1	34	57	-1	-1	35	55	6	62	11	24	-1	-1	-1	53	-1	-1	-1	36	-1	-1	13	42	-1	-1	-1	-1	-1	-1	-1	-1	-1	64	52	10	-1	-1	1	31	22	-1	-1	19	-1	-1	-1	-1	-1	-1	-1	56	18	48	60	-1	59	-1	58
6	-1	58	-1	31	-1	27	36	-1	33	-1	19	56	10	-1	51	-1	38	-1	14	55	50	-1	-1	20	40	-1	-1	-1	64	41	-1	60	12	-1	-1	-1	-1	-1	-1	44	-1	-1	-1	-1	-1	4	-1	-1	52	59	9	-1	-1	-1	-1	-1	-1	5	-1	-1	32	63	13
-1	-1	22	-1	5	-1	-1	-1	8	53	39	45	-1	-1	26	30	-1	57	-1	36	-1	20	-1	52	44	-1	59	50	-1	9	37	-1	-1	23	-1	14	10	38	27	19	17	51	58	49	-1	-1	42	24	-1	34	56	-1	46	-1	64	31	-1	55	-1	21	-1	6	-1	28
-1	15	47	16	32	39	-1	44	22	-1	-1	-1	59	-1	-1	3	8	-1	60	-1	-1	-1	35	-1	-1	-1	-1	-1	-1	5	-1	-1	9	2	63	-1	-1	57	36	-1	-1	37	-1	-1	52	-1	-1	45	-1	-1	49	-1	-1	14	17	-1	20	42	-1	38	-1	-1	-1	-1
53	37	-1	-1	-1	-1	-1	-1	-1	-1	-1	-1	61	63	29	-1	48	-1	22	-1	-1	-1	-1	10	-1	-1	-1	-1	39	-1	14	-1	-1	46	-1	-1	-1	-1	13	5	-1	-1	-1	-1	56	55	-1	-1	2	38	-1	-1	24	45	-1	60	-1	3	36	23	17	-1	26	-1
-1	28	-1	46	-1	61	57	1	49	9	-1	-1	54	-1	-1	-1	-1	-1	63	-1	13	-1	-1	33	-1	-1	7	-1	-1	56	-1	-1	-1	-1	44	41	-1	-1	24	-1	-1	23	39	-1	3	32	-1	38	-1	53	50	-1	-1	6	-1	-1	47	-1	-1	-1	19	-1	-1	22
22	24	-1	28	30	-1	39	56	38	41	9	-1	-1	-1	-1	46	16	64	-1	2	-1	-1	19	-1	-1	-1	4	26	-1	-1	36	-1	14	-1	45	-1	63	47	48	-1	54	42	-1	-1	51	-1	34	-1	53	60	-1	-1	-1	15	12	-1	21	-1	6	-1	7	5	-1	-1
-1	-1	-1	54	-1	-1	16	-1	-1	-1	-1	-1	-1	-1	50	-1	-1	-1	-1	-1	42	-1	-1	39	30	-1	-1	-1	-1	45	-1	-1	-1	62	-1	-1	-1	-1	29	7	-1	-1	-1	-1	-1	-1	-1	-1	4	-1	-1	-1	-1	13	22	33	-1	-1	25	3	-1	23	-1	-1
47	12	-1	-1	-1	4	-1	-1	-1	-1	-1	-1	-1	-1	-1	-1	-1	-1	-1	-1	-1	-1	-1	1	-1	-1	-1	6	29	-1	24	-1	17	3	-1	18	2	54	-1	64	61	-1	-1	-1	-1	-1	9	-1	-1	40	52	-1	-1	-1	49	-1	-1	20	42	43	-1	-1	-1	38
-1	23	-1	-1	-1	-1	59	-1	39	-1	-1	-1	17	-1	-1	16	-1	-1	-1	6	-1	-1	-1	-1	8	1	54	35	-1	12	27	-1	-1	31	-1	-1	-1	-1	53	42	38	-1	-1	-1	-1	-1	-1	30	-1	-1	51	-1	-1	-1	-1	19	-1	58	-1	11	-1	-1	32	56
15	-1	-1	52	-1	-1	-1	60	-1	55	4	-1	-1	-1	3	-1	17	-1	-1	-1	-1	36	-1	-1	-1	22	47	-1	-1	-1	-1	41	5	-1	-1	40	57	-1	-1	-1	43	-1	-1	-1	-1	64	-1	21	-1	-1	-1	-1	-1	-1	50	-1	-1	-1	27	1	-1	-1	-1	44
42	-1	-1	-1	-1	-1	35	-1	-1	-1	53	-1	-1	-1	-1	-1	37	-1	-1	-1	-1	10	-1	23	-1	-1	-1	-1	-1	11	15	2	-1	-1	50	-1	-1	-1	19	13	-1	-1	-1	4	-1	-1	40	46	27	-1	-1	-1	6	-1	-1	54	18	14	-1	33	-1	-1	31	-1
63	-1	2	41	-1	62	-1	43	-1	28	21	-1	-1	-1	-1	60	-1	-1	45	11	57	-1	-1	51	55	-1	-1	-1	18	-1	-1	-1	34	-1	-1	-1	37	-1	61	-1	-1	-1	-1	56	-1	-1	-1	-1	-1	-1	29	-1	47	-1	-1	-1	36	-1	-1	22	-1	-1	16	-1
5	11	-1	38	1	36	20	31	-1	22	-1	2	-1	12	-1	-1	34	-1	32	35	18	-1	-1	-1	-1	-1	-1	-1	7	-1	-1	50	51	-1	-1	56	-1	8	-1	10	-1	28	29	16	-1	-1	-1	-1	-1	57	14	59	-1	-1	-1	30	-1	-1	9	15	-1	-1	37	24
-1	27	18	-1	-1	-1	-1	46	-1	-1	-1	-1	-1	-1	21	61	-1	-1	62	34	-1	-1	-1	-1	-1	7	-1	-1	-1	52	-1	13	47	-1	-1	50	14	-1	-1	-1	8	19	-1	15	-1	-1	-1	-1	-1	5	58	64	-1	-1	-1	-1	9	-1	-1	16	-1	-1	-1	30
-1	-1	-1	34	-1	-1	-1	41	-1	54	-1	-1	63	-1	-1	-1	-1	-1	-1	-1	-1	-1	-1	-1	-1	-1	-1	-1	48	-1	-1	55	-1	-1	-1	1	44	13	-1	28	-1	-1	-1	-1	46	57	37	-1	42	-1	-1	40	-1	-1	61	-1	51	-1	-1	8	-1	21	-1	-1
59	56	26	-1	7	-1	-1	14	-1	49	11	-1	-1	-1	-1	-1	-1	54	-1	-1	-1	-1	41	-1	3	-1	-1	-1	-1	35	53	-1	-1	-1	-1	42	36	46	-1	4	52	44	21	-1	24	-1	-1	-1	13	-1	-1	-1	-1	-1	-1	-1	-1	-1	58	45	-1	57	28	-1
-1	21	8	-1	9	2	-1	23	6	17	-1	-1	43	56	44	7	-1	-1	-1	13	-1	-1	-1	47	-1	36	14	-1	-1	-1	1	-1	-1	-1	-1	11	-1	10	20	-1	-1	-1	-1	29	-1	28	-1	-1	-1	-1	24	39	-1	19	-1	52	-1	41	63	-1	-1	-1	-1	-1
-1	-1	-1	60	49	-1	38	29	15	-1	-1	39	25	-1	-1	47	-1	-1	-1	-1	-1	16	-1	59	50	64	-1	-1	-1	-1	21	-1	41	26	-1	51	7	-1	-1	24	-1	-1	4	11	58	-1	-1	-1	-1	-1	-1	-1	-1	-1	1	-1	-1	36	-1	-1	-1	-1	22	20
-1	33	48	30	40	-1	-1	-1	13	-1	-1	-1	37	-1	-1	-1	-1	-1	21	-1	-1	-1	-1	-1	15	-1	-1	29	45	31	60	-1	-1	58	54	-1	25	53	43	-1	-1	64	-1	22	-1	-1	-1	-1	-1	-1	17	28	-1	-1	20	-1	-1	-1	4	-1	10	61	-1	-1
16	13	-1	47	-1	57	5	63	10	-1	2	-1	30	-1	53	52	32	-1	-1	-1	9	-1	1	56	-1	39	-1	41	-1	38	-1	40	59	-1	-1	27	8	-1	12	15	50	43	7	42	-1	-1	49	-1	-1	-1	18	62	51	34	-1	-1	64	-1	24	54	31	33	-1	-1
61	-1	-1	-1	-1	-1	54	-1	-1	-1	-1	-1	-1	-1	42	-1	-1	-1	-1	-1	-1	-1	-1	-1	37	25	16	-1	24	-1	4	-1	29	34	49	23	21	5	56	-1	18	-1	-1	-1	-1	-1	32	-1	-1	36	-1	-1	7	8	-1	22	-1	1	47	-1	-1	26	-1	15
-1	-1	42	-1	53	-1	-1	-1	56	-1	1	-1	-1	-1	-1	-1	18	-1	11	-1	-1	8	4	37	-1	54	9	-1	47	-1	2	-1	-1	-1	5	-1	-1	-1	49	-1	62	38	31	-1	-1	-1	43	48	30	-1	15	-1	44	57	-1	-1	3	19	-1	-1	45	-1	13	-1
-1	-1	-1	11	-1	-1	-1	-1	-1	-1	59	53	-1	-1	-1	-1	-1	-1	13	-1	-1	-1	-1	-1	-1	-1	-1	45	16	57	-1	-1	-1	-1	4	-1	18	-1	-1	-1	-1	-1	-1	20	6	23	28	-1	-1	26	25	-1	50	21	-1	-1	-1	9	-1	29	58	-1	-1	-1
-1	-1	54	-1	48	3	-1	45	14	-1	5	-1	-1	64	-1	13	-1	-1	-1	24	46	-1	22	-1	40	61	-1	8	-1	53	31	-1	-1	-1	57	-1	-1	37	-1	-1	26	-1	-1	-1	-1	29	35	-1	56	-1	33	32	10	-1	36	-1	-1	4	18	-1	-1	-1	6	55
64	-1	-1	-1	22	-1	-1	-1	-1	-1	-1	30	15	-1	-1	-1	-1	-1	-1	60	-1	31	10	5	-1	34	-1	-1	-1	25	-1	36	-1	-1	-1	-1	-1	-1	28	-1	-1	-1	-1	41	-1	-1	-1	-1	9	-1	-1	-1	-1	-1	-1	17	63	35	-1	-1	-1	12	-1	-1
60	-1	-1	-1	50	40	30	-1	-1	62	-1	11	3	-1	10	25	45	-1	39	-1	32	43	-1	27	-1	-1	-1	44	-1	1	42	-1	53	-1	-1	-1	-1	-1	-1	46	-1	56	-1	64	-1	7	2	54	-1	22	-1	-1	-1	-1	47	-1	-1	-1	17	61	-1	16	-1	-1
-1	-1	-1	-1	-1	-1	14	-1	-1	-1	57	26	42	-1	-1	-1	21	-1	-1	-1	-1	-1	-1	6	11	49	-1	37	-1	-1	5	-1	-1	16	23	-1	29	-1	-1	-1	19	32	-1	-1	-1	25	-1	-1	-1	-1	-1	-1	-1	-1	51	-1	2	-1	-1	-1	-1	-1	10	40
-1	-1	-1	-1	-1	-1	13	-1	61	-1	-1	-1	-1	-1	8	37	-1	25	33	-1	16	-1	53	40	-1	-1	12	-1	-1	-1	-1	-1	-1	41	-1	38	27	-1	9	47	-1	21	50	45	36	1	22	-1	-1	-1	-1	-1	-1	-1	-1	23	-1	44	56	-1	54	-1	49	-1
-1	-1	-1	-1	-1	-1	-1	18	31	2	-1	-1	-1	17	-1	-1	-1	1	-1	-1	20	-1	54	15	-1	59	27	48	55	-1	-1	-1	45	13	39	-1	58	-1	-1	12	24	49	61	-1	34	11	-1	37	-1	19	5	35	-1	-1	63	-1	-1	30	62	-1	43	-1	-1	32
64 
59 37 30 38
40 28 10 36
63 28 55 48
61 45 19 3
35 18 4 57
23 35 42 48
20 8 37 21
15 43 24 21
16 24 50 31
8 56 25 42
1 3 41 51
9 12 16 33
53 62 34 53
44 21 31 50
63 38 22 57
6 46 57 8
20 50 10 18
42 16 34 12
47 5 55 35
59 10 62 49
44 35 60 36
4 16 9 27
20 3 45 39
58 7 12 61
59 57 11 40
21 46 46 18
12 8 58 6
49 28 42 17
37 63 32 38
33 40 38 20
9 58 32 39
47 55 49 38
58 5 47 30
11 42 46 61
1 8 40 55
23 13 61 4
41 29 22 20
33 12 18 45
57 44 43 45
47 22 26 54
42 47 16 21
6 32 60 19
33 64 17 37
48 27 49 54
49 5 12 49
29 24 56 14
16 12 51 46
49 61 56 10
49 53 15 41
27 56 44 44
45 58 39 4
44 43 59 54
47 59 38 29
12 28 26 64
56 3 15 14
7 21 22 22
56 23 20 43
14 18 2 62
20 16 54 60
49 17 44 32
48 54 3 3
53 39 21 21
12 11 48 49
51 20 33 17
